NAME : instances/20-120-tsp/instance-24.tsp
COMMENT : No Comment
TYPE : TSP
DIMENSION: 24
EDGE_WEIGHT_TYPE : EUC_2D
NODE_COORD_SECTION
1 252 4464 
2 6238 7363 
3 7914 3914 
4 6017 2244 
5 1095 2675 
6 717 5889 
7 2151 4215 
8 8510 6298 
9 4068 6600 
10 8320 6706 
11 9119 8795 
12 7799 7456 
13 4603 3721 
14 2229 8115 
15 4746 5199 
16 5190 8443 
17 1042 1323 
18 5492 8909 
19 9804 5025 
20 4583 9793 
21 1032 6412 
22 8762 3747 
23 4003 959 
24 8820 78 
EOF
